472 476 477 478 
535 539 540 541 
595 599 600 601 
657 662 663 664 
718 723 724 725 
765 770 771 772 
795 800 801 802 
825 830 831 832 
855 860 861 862 
885 890 891 892 
915 920 921 922 
945 950 951 952 
975 980 981 982 
1005 1010 1011 1012 
1035 1040 1041 1042 
1065 1070 1071 1072 
1102 1107 1108 1109 
1163 1167 1168 1169 
1223 1227 1228 1229 
1283 1287 1288 1289 
1343 1347 1348 1349 
1402 1406 1407 1408 
1465 1469 1470 1471 
